# Solution for model Kidney Three-ways Exchange
# Objective value = 48
E[0,67] 0
E[0,18] 0
E[0,59] 0
E[0,92] 0
E[0,21] 0
E[1,61] 0
E[1,85] 0
E[1,39] 0
E[2,67] 0
E[2,22] 0
E[2,87] 0
E[2,9] 0
E[2,12] 0
E[2,77] 1
E[3,80] 0
E[3,65] 0
E[3,35] 0
E[3,38] 0
E[3,95] 0
E[3,75] 0
E[3,44] 0
E[3,63] 0
E[4,0] 0
E[4,68] 0
E[4,40] 0
E[4,9] 1
E[4,59] 0
E[5,64] 0
E[5,33] 0
E[5,50] 0
E[5,40] 1
E[5,72] 0
E[5,28] 0
E[6,40] 0
E[6,44] 0
E[6,61] 0
E[6,95] 0
E[7,56] 0
E[7,74] 0
E[7,83] 0
E[7,45] 0
E[7,86] 0
E[8,64] 0
E[8,33] 0
E[8,76] 0
E[8,61] 0
E[8,79] 0
E[9,56] 0
E[9,41] 0
E[9,42] 1
E[9,28] 0
E[10,81] 0
E[10,46] 1
E[10,38] 0
E[10,77] 0
E[11,16] 0
E[11,19] 0
E[11,20] 0
E[11,86] 1
E[12,48] 0
E[12,2] 0
E[12,51] 0
E[12,42] 0
E[13,1] 0
E[13,83] 0
E[13,53] 0
E[13,89] 0
E[13,57] 0
E[14,51] 0
E[14,26] 0
E[14,19] 0
E[14,61] 0
E[14,95] 0
E[15,67] 1
E[15,69] 0
E[15,93] 0
E[16,56] 0
E[16,84] 0
E[16,93] 0
E[16,7] 0
E[17,36] 1
E[17,14] 0
E[17,12] 0
E[17,78] 0
E[17,46] 0
E[17,69] 0
E[18,51] 0
E[18,76] 0
E[18,13] 0
E[18,86] 0
E[18,45] 0
E[19,83] 0
E[19,15] 0
E[20,65] 1
E[20,46] 0
E[21,19] 0
E[21,84] 1
E[21,6] 0
E[21,25] 0
E[21,95] 0
E[21,47] 0
E[22,0] 0
E[22,33] 0
E[22,24] 0
E[22,44] 0
E[22,29] 0
E[22,62] 0
E[23,18] 0
E[23,36] 0
E[23,4] 0
E[23,74] 0
E[23,77] 0
E[23,31] 0
E[24,60] 0
E[24,67] 0
E[24,52] 0
E[24,38] 0
E[24,31] 0
E[25,9] 0
E[25,39] 0
E[26,32] 0
E[26,10] 0
E[26,50] 0
E[26,87] 0
E[27,24] 0
E[27,9] 0
E[27,83] 0
E[27,20] 0
E[27,81] 0
E[28,84] 0
E[28,78] 1
E[28,53] 0
E[28,30] 0
E[28,87] 0
E[29,64] 0
E[29,83] 0
E[29,19] 0
E[29,52] 0
E[29,25] 0
E[29,78] 0
E[30,17] 0
E[30,66] 0
E[30,21] 0
E[30,22] 0
E[30,49] 0
E[30,43] 0
E[30,82] 0
E[30,69] 0
E[31,41] 0
E[31,18] 0
E[31,67] 0
E[32,1] 0
E[32,50] 0
E[32,92] 0
E[32,29] 0
E[33,10] 0
E[33,67] 0
E[33,28] 0
E[33,31] 0
E[34,77] 0
E[34,86] 0
E[34,63] 1
E[35,66] 0
E[35,4] 0
E[35,53] 0
E[35,10] 1
E[35,94] 0
E[35,95] 0
E[36,52] 1
E[37,64] 0
E[37,59] 0
E[37,71] 1
E[38,33] 0
E[38,69] 1
E[38,73] 0
E[38,44] 0
E[38,14] 0
E[38,95] 0
E[39,48] 0
E[39,1] 0
E[39,51] 1
E[39,21] 0
E[39,86] 0
E[39,46] 0
E[39,79] 0
E[40,61] 1
E[40,87] 0
E[40,20] 0
E[40,37] 0
E[40,53] 0
E[41,72] 0
E[41,57] 0
E[41,18] 0
E[41,73] 0
E[41,47] 1
E[42,4] 1
E[43,19] 0
E[43,9] 0
E[43,11] 0
E[43,54] 0
E[44,16] 0
E[44,24] 0
E[44,36] 0
E[44,81] 1
E[45,65] 0
E[45,83] 0
E[45,37] 0
E[45,54] 0
E[45,78] 0
E[45,63] 0
E[46,49] 0
E[46,35] 1
E[46,25] 0
E[46,9] 0
E[46,31] 0
E[47,17] 0
E[47,19] 0
E[47,79] 1
E[48,34] 0
E[48,5] 0
E[48,87] 0
E[48,61] 0
E[49,48] 0
E[49,1] 0
E[49,83] 0
E[49,36] 0
E[49,39] 0
E[49,40] 0
E[49,80] 1
E[49,29] 0
E[50,95] 0
E[51,2] 0
E[51,91] 0
E[51,68] 0
E[51,88] 0
E[51,74] 1
E[51,27] 0
E[51,93] 0
E[51,62] 0
E[51,47] 0
E[52,0] 0
E[52,17] 1
E[52,90] 0
E[52,36] 0
E[53,48] 0
E[53,42] 0
E[53,87] 0
E[53,15] 0
E[54,19] 0
E[55,60] 0
E[55,18] 0
E[55,44] 0
E[55,85] 0
E[55,94] 0
E[56,75] 0
E[56,67] 0
E[56,20] 1
E[56,94] 0
E[56,7] 0
E[56,25] 0
E[56,42] 0
E[56,71] 0
E[56,92] 0
E[56,78] 0
E[57,0] 0
E[57,35] 0
E[57,76] 0
E[58,52] 0
E[58,5] 0
E[58,23] 0
E[59,84] 0
E[59,70] 0
E[59,53] 0
E[59,46] 0
E[59,47] 0
E[60,48] 0
E[60,26] 0
E[60,7] 0
E[61,17] 0
E[61,43] 0
E[61,44] 0
E[61,5] 1
E[61,55] 0
E[62,24] 0
E[62,92] 0
E[62,4] 0
E[62,86] 0
E[62,31] 0
E[63,34] 1
E[63,67] 0
E[63,61] 0
E[63,95] 0
E[64,84] 0
E[64,4] 0
E[64,54] 0
E[64,39] 0
E[64,8] 0
E[64,52] 0
E[64,71] 0
E[64,28] 1
E[65,17] 0
E[65,34] 0
E[65,84] 0
E[65,71] 0
E[65,56] 1
E[65,9] 0
E[65,44] 0
E[65,13] 0
E[66,18] 0
E[66,95] 0
E[66,21] 0
E[66,47] 0
E[67,56] 0
E[67,81] 0
E[67,35] 0
E[67,60] 0
E[67,15] 1
E[68,8] 0
E[68,49] 1
E[68,18] 0
E[68,11] 0
E[68,62] 0
E[69,83] 0
E[69,35] 0
E[69,8] 0
E[69,41] 0
E[69,92] 1
E[69,29] 0
E[69,62] 0
E[69,45] 0
E[70,17] 0
E[70,2] 1
E[70,50] 0
E[70,46] 0
E[71,0] 0
E[71,65] 0
E[71,66] 0
E[71,93] 1
E[71,73] 0
E[71,29] 0
E[71,30] 0
E[71,31] 0
E[72,32] 0
E[72,3] 0
E[72,4] 0
E[72,37] 0
E[72,11] 0
E[72,78] 0
E[72,53] 0
E[73,1] 0
E[73,35] 0
E[73,5] 0
E[73,72] 0
E[73,61] 0
E[73,77] 0
E[73,47] 0
E[74,33] 0
E[74,95] 0
E[74,5] 0
E[74,46] 0
E[74,39] 1
E[75,16] 0
E[75,64] 0
E[75,80] 0
E[75,41] 0
E[75,42] 0
E[75,74] 0
E[75,77] 0
E[75,15] 0
E[76,42] 0
E[76,5] 0
E[76,61] 0
E[77,50] 0
E[77,45] 0
E[77,70] 1
E[78,64] 1
E[78,19] 0
E[78,52] 0
E[78,53] 0
E[78,74] 0
E[78,46] 0
E[78,15] 0
E[79,17] 0
E[79,67] 0
E[79,21] 0
E[79,25] 0
E[79,41] 1
E[79,93] 0
E[80,0] 0
E[80,32] 0
E[80,35] 0
E[80,68] 1
E[80,8] 0
E[80,89] 0
E[80,93] 0
E[80,79] 0
E[81,88] 1
E[81,20] 0
E[81,85] 0
E[81,71] 0
E[81,8] 0
E[81,47] 0
E[81,28] 0
E[81,45] 0
E[81,31] 0
E[82,90] 0
E[82,44] 0
E[82,21] 1
E[83,88] 0
E[83,33] 0
E[83,89] 0
E[84,73] 0
E[84,42] 0
E[84,82] 1
E[84,22] 0
E[85,16] 0
E[85,64] 0
E[85,50] 0
E[85,35] 0
E[85,22] 0
E[85,58] 0
E[86,37] 0
E[86,40] 0
E[86,25] 0
E[86,11] 1
E[86,13] 0
E[86,62] 0
E[86,93] 0
E[87,66] 0
E[87,44] 0
E[88,33] 0
E[88,44] 1
E[88,70] 0
E[89,17] 0
E[89,66] 0
E[89,5] 0
E[89,54] 0
E[89,23] 0
E[89,26] 0
E[89,43] 0
E[89,93] 0
E[89,31] 0
E[90,25] 0
E[90,82] 0
E[90,35] 0
E[90,13] 0
E[90,22] 0
E[91,74] 0
E[91,87] 0
E[92,87] 0
E[92,13] 0
E[92,38] 1
E[92,61] 0
E[93,1] 0
E[93,37] 1
E[94,77] 0
E[94,30] 0
E[95,24] 0
E[95,93] 0
E[95,47] 0
E[96,93] 0
E[97,48] 0
E[97,53] 0
E[97,23] 0
E[97,88] 0
E[97,71] 0
E[97,7] 0
E[97,12] 0
E[98,56] 0
E[98,75] 0
E[98,76] 0
E[99,2] 0
E[99,35] 0
E[99,36] 0
E[99,66] 0
E[99,46] 0
E[99,27] 0
E[99,21] 0
E[99,22] 0
E[99,88] 0
E[99,59] 0
E[99,62] 0
E[99,95] 0
